40
    18    65    81    68    43     4    80    92    60    86    39    90   100    25    41    42    21    90    46    32    11     5    93    45    86    45    99    72    89    37    58     6    91    65    45    41    92    63    10    78
     7     8     3     4     3     5    10     6    10     2     3     6     3     5     4     9     5     5     5    10     7    10     4     6     1     2     3     4     5     2     4     2     6     3     6     1     9     8     9    10
     0   637     0     0   578   572     0     0     0   390   396     0   358     0   253     0     0    94     0     0   152   878     0   237   296     0     0   714     0   588     0   677     0   362     0     0   386     0    81   388
